\ LP format - for model browsing. Use MPS format to capture full model detail.
Maximize
  X[0,20] + X[1,20]
Subject To
 r_2[0]: alpha[0,0,1] + alpha[0,0,2] + alpha[0,0,3] + alpha[0,0,4]
   + alpha[0,0,5] + alpha[0,0,6] + alpha[0,0,7] + alpha[0,0,8]
   + alpha[0,0,9] + alpha[0,0,10] + alpha[0,0,11] + alpha[0,0,12]
   + alpha[0,0,13] + alpha[0,0,14] + alpha[0,0,15] + alpha[0,0,16]
   + alpha[0,0,17] + alpha[0,0,18] + alpha[0,0,19] + alpha[0,0,20]
   + alpha[0,1,1] + alpha[0,1,2] + alpha[0,1,3] + alpha[0,1,4]
   + alpha[0,1,5] + alpha[0,1,6] + alpha[0,1,7] + alpha[0,1,8]
   + alpha[0,1,9] + alpha[0,1,10] + alpha[0,1,11] + alpha[0,1,12]
   + alpha[0,1,13] + alpha[0,1,14] + alpha[0,1,15] + alpha[0,1,16]
   + alpha[0,1,17] + alpha[0,1,18] + alpha[0,1,19] + alpha[0,1,20] <= 1
 r_2[1]: alpha[1,0,1] + alpha[1,0,2] + alpha[1,0,3] + alpha[1,0,4]
   + alpha[1,0,5] + alpha[1,0,6] + alpha[1,0,7] + alpha[1,0,8]
   + alpha[1,0,9] + alpha[1,0,10] + alpha[1,0,11] + alpha[1,0,12]
   + alpha[1,0,13] + alpha[1,0,14] + alpha[1,0,15] + alpha[1,0,16]
   + alpha[1,0,17] + alpha[1,0,18] + alpha[1,0,19] + alpha[1,0,20]
   + alpha[1,1,1] + alpha[1,1,2] + alpha[1,1,3] + alpha[1,1,4]
   + alpha[1,1,5] + alpha[1,1,6] + alpha[1,1,7] + alpha[1,1,8]
   + alpha[1,1,9] + alpha[1,1,10] + alpha[1,1,11] + alpha[1,1,12]
   + alpha[1,1,13] + alpha[1,1,14] + alpha[1,1,15] + alpha[1,1,16]
   + alpha[1,1,17] + alpha[1,1,18] + alpha[1,1,19] + alpha[1,1,20] <= 1
 r_3[0,0,1,0]: 2 alpha[0,0,1] - w[0,0,1] <= 1
 r_3[0,0,1,1]: 2 alpha[0,1,1] - w[0,0,1] <= 1
 r_3[0,0,2,0]: 2 alpha[0,0,2] - w[0,0,2] <= 1
 r_3[0,0,2,1]: 2 alpha[0,1,2] - w[0,0,2] <= 1
 r_3[0,0,3,0]: 2 alpha[0,0,3] - w[0,0,3] <= 1
 r_3[0,0,3,1]: 2 alpha[0,1,3] - w[0,0,3] <= 1
 r_3[0,0,4,0]: 2 alpha[0,0,4] - w[0,0,4] <= 1
 r_3[0,0,4,1]: 2 alpha[0,1,4] - w[0,0,4] <= 1
 r_3[0,0,5,0]: 2 alpha[0,0,5] - w[0,0,5] <= 1
 r_3[0,0,5,1]: 2 alpha[0,1,5] - w[0,0,5] <= 1
 r_3[0,0,6,0]: 2 alpha[0,0,6] - w[0,0,6] <= 1
 r_3[0,0,6,1]: 2 alpha[0,1,6] - w[0,0,6] <= 1
 r_3[0,0,7,0]: 2 alpha[0,0,7] - w[0,0,7] <= 1
 r_3[0,0,7,1]: 2 alpha[0,1,7] - w[0,0,7] <= 1
 r_3[0,0,8,0]: 2 alpha[0,0,8] - w[0,0,8] <= 1
 r_3[0,0,8,1]: 2 alpha[0,1,8] - w[0,0,8] <= 1
 r_3[0,0,9,0]: 2 alpha[0,0,9] - w[0,0,9] <= 1
 r_3[0,0,9,1]: 2 alpha[0,1,9] - w[0,0,9] <= 1
 r_3[0,0,10,0]: 2 alpha[0,0,10] - w[0,0,10] <= 1
 r_3[0,0,10,1]: 2 alpha[0,1,10] - w[0,0,10] <= 1
 r_3[0,0,11,0]: 2 alpha[0,0,11] - w[0,0,11] <= 1
 r_3[0,0,11,1]: 2 alpha[0,1,11] - w[0,0,11] <= 1
 r_3[0,0,12,0]: 2 alpha[0,0,12] - w[0,0,12] <= 1
 r_3[0,0,12,1]: 2 alpha[0,1,12] - w[0,0,12] <= 1
 r_3[0,0,13,0]: 2 alpha[0,0,13] - w[0,0,13] <= 1
 r_3[0,0,13,1]: 2 alpha[0,1,13] - w[0,0,13] <= 1
 r_3[0,0,14,0]: 2 alpha[0,0,14] - w[0,0,14] <= 1
 r_3[0,0,14,1]: 2 alpha[0,1,14] - w[0,0,14] <= 1
 r_3[0,0,15,0]: 2 alpha[0,0,15] - w[0,0,15] <= 1
 r_3[0,0,15,1]: 2 alpha[0,1,15] - w[0,0,15] <= 1
 r_3[0,0,16,0]: 2 alpha[0,0,16] - w[0,0,16] <= 1
 r_3[0,0,16,1]: 2 alpha[0,1,16] - w[0,0,16] <= 1
 r_3[0,0,17,0]: 2 alpha[0,0,17] - w[0,0,17] <= 1
 r_3[0,0,17,1]: 2 alpha[0,1,17] - w[0,0,17] <= 1
 r_3[0,0,18,0]: 2 alpha[0,0,18] - w[0,0,18] <= 1
 r_3[0,0,18,1]: 2 alpha[0,1,18] - w[0,0,18] <= 1
 r_3[0,0,19,0]: 2 alpha[0,0,19] - w[0,0,19] <= 1
 r_3[0,0,19,1]: 2 alpha[0,1,19] - w[0,0,19] <= 1
 r_3[0,0,20,0]: 2 alpha[0,0,20] - w[0,0,20] <= 1
 r_3[0,0,20,1]: 2 alpha[0,1,20] - w[0,0,20] <= 1
 r_3[1,0,1,0]: 2 alpha[1,0,1] - w[1,0,1] <= 1
 r_3[1,0,1,1]: 2 alpha[1,1,1] - w[1,0,1] <= 1
 r_3[1,0,2,0]: 2 alpha[1,0,2] - w[1,0,2] <= 1
 r_3[1,0,2,1]: 2 alpha[1,1,2] - w[1,0,2] <= 1
 r_3[1,0,3,0]: 2 alpha[1,0,3] - w[1,0,3] <= 1
 r_3[1,0,3,1]: 2 alpha[1,1,3] - w[1,0,3] <= 1
 r_3[1,0,4,0]: 2 alpha[1,0,4] - w[1,0,4] <= 1
 r_3[1,0,4,1]: 2 alpha[1,1,4] - w[1,0,4] <= 1
 r_3[1,0,5,0]: 2 alpha[1,0,5] - w[1,0,5] <= 1
 r_3[1,0,5,1]: 2 alpha[1,1,5] - w[1,0,5] <= 1
 r_3[1,0,6,0]: 2 alpha[1,0,6] - w[1,0,6] <= 1
 r_3[1,0,6,1]: 2 alpha[1,1,6] - w[1,0,6] <= 1
 r_3[1,0,7,0]: 2 alpha[1,0,7] - w[1,0,7] <= 1
 r_3[1,0,7,1]: 2 alpha[1,1,7] - w[1,0,7] <= 1
 r_3[1,0,8,0]: 2 alpha[1,0,8] - w[1,0,8] <= 1
 r_3[1,0,8,1]: 2 alpha[1,1,8] - w[1,0,8] <= 1
 r_3[1,0,9,0]: 2 alpha[1,0,9] - w[1,0,9] <= 1
 r_3[1,0,9,1]: 2 alpha[1,1,9] - w[1,0,9] <= 1
 r_3[1,0,10,0]: 2 alpha[1,0,10] - w[1,0,10] <= 1
 r_3[1,0,10,1]: 2 alpha[1,1,10] - w[1,0,10] <= 1
 r_3[1,0,11,0]: 2 alpha[1,0,11] - w[1,0,11] <= 1
 r_3[1,0,11,1]: 2 alpha[1,1,11] - w[1,0,11] <= 1
 r_3[1,0,12,0]: 2 alpha[1,0,12] - w[1,0,12] <= 1
 r_3[1,0,12,1]: 2 alpha[1,1,12] - w[1,0,12] <= 1
 r_3[1,0,13,0]: 2 alpha[1,0,13] - w[1,0,13] <= 1
 r_3[1,0,13,1]: 2 alpha[1,1,13] - w[1,0,13] <= 1
 r_3[1,0,14,0]: 2 alpha[1,0,14] - w[1,0,14] <= 1
 r_3[1,0,14,1]: 2 alpha[1,1,14] - w[1,0,14] <= 1
 r_3[1,0,15,0]: 2 alpha[1,0,15] - w[1,0,15] <= 1
 r_3[1,0,15,1]: 2 alpha[1,1,15] - w[1,0,15] <= 1
 r_3[1,0,16,0]: 2 alpha[1,0,16] - w[1,0,16] <= 1
 r_3[1,0,16,1]: 2 alpha[1,1,16] - w[1,0,16] <= 1
 r_3[1,0,17,0]: 2 alpha[1,0,17] - w[1,0,17] <= 1
 r_3[1,0,17,1]: 2 alpha[1,1,17] - w[1,0,17] <= 1
 r_3[1,0,18,0]: 2 alpha[1,0,18] - w[1,0,18] <= 1
 r_3[1,0,18,1]: 2 alpha[1,1,18] - w[1,0,18] <= 1
 r_3[1,0,19,0]: 2 alpha[1,0,19] - w[1,0,19] <= 1
 r_3[1,0,19,1]: 2 alpha[1,1,19] - w[1,0,19] <= 1
 r_3[1,0,20,0]: 2 alpha[1,0,20] - w[1,0,20] <= 1
 r_3[1,0,20,1]: 2 alpha[1,1,20] - w[1,0,20] <= 1
 r_4[0,0,0,1]: theta[0,0,0,1] + theta[0,0,0,2] + theta[0,0,0,3]
   + theta[0,0,0,4] + theta[0,0,0,5] + theta[0,0,0,6] + theta[0,0,0,7]
   + theta[0,0,0,8] + theta[0,0,0,9] + theta[0,0,0,10] + theta[0,0,0,11]
   + theta[0,0,0,12] + theta[0,0,0,13] + theta[0,0,0,14] + theta[0,0,0,15]
   + theta[0,0,0,16] + theta[0,0,0,17] + theta[0,0,0,18] + theta[0,0,0,19]
   + theta[0,0,0,20] <= 0
 r_4[0,0,0,2]: theta[0,0,0,1] + theta[0,0,0,2] + theta[0,0,0,3]
   + theta[0,0,0,4] + theta[0,0,0,5] + theta[0,0,0,6] + theta[0,0,0,7]
   + theta[0,0,0,8] + theta[0,0,0,9] + theta[0,0,0,10] + theta[0,0,0,11]
   + theta[0,0,0,12] + theta[0,0,0,13] + theta[0,0,0,14] + theta[0,0,0,15]
   + theta[0,0,0,16] + theta[0,0,0,17] + theta[0,0,0,18] + theta[0,0,0,19]
   + theta[0,0,0,20] <= 0
 r_4[0,0,0,3]: theta[0,0,0,1] + theta[0,0,0,2] + theta[0,0,0,3]
   + theta[0,0,0,4] + theta[0,0,0,5] + theta[0,0,0,6] + theta[0,0,0,7]
   + theta[0,0,0,8] + theta[0,0,0,9] + theta[0,0,0,10] + theta[0,0,0,11]
   + theta[0,0,0,12] + theta[0,0,0,13] + theta[0,0,0,14] + theta[0,0,0,15]
   + theta[0,0,0,16] + theta[0,0,0,17] + theta[0,0,0,18] + theta[0,0,0,19]
   + theta[0,0,0,20] <= 0
 r_4[0,0,0,4]: theta[0,0,0,1] + theta[0,0,0,2] + theta[0,0,0,3]
   + theta[0,0,0,4] + theta[0,0,0,5] + theta[0,0,0,6] + theta[0,0,0,7]
   + theta[0,0,0,8] + theta[0,0,0,9] + theta[0,0,0,10] + theta[0,0,0,11]
   + theta[0,0,0,12] + theta[0,0,0,13] + theta[0,0,0,14] + theta[0,0,0,15]
   + theta[0,0,0,16] + theta[0,0,0,17] + theta[0,0,0,18] + theta[0,0,0,19]
   + theta[0,0,0,20] <= 0
 r_4[0,0,0,5]: theta[0,0,0,1] + theta[0,0,0,2] + theta[0,0,0,3]
   + theta[0,0,0,4] + theta[0,0,0,5] + theta[0,0,0,6] + theta[0,0,0,7]
   + theta[0,0,0,8] + theta[0,0,0,9] + theta[0,0,0,10] + theta[0,0,0,11]
   + theta[0,0,0,12] + theta[0,0,0,13] + theta[0,0,0,14] + theta[0,0,0,15]
   + theta[0,0,0,16] + theta[0,0,0,17] + theta[0,0,0,18] + theta[0,0,0,19]
   + theta[0,0,0,20] <= 0
 r_4[0,0,0,6]: theta[0,0,0,1] + theta[0,0,0,2] + theta[0,0,0,3]
   + theta[0,0,0,4] + theta[0,0,0,5] + theta[0,0,0,6] + theta[0,0,0,7]
   + theta[0,0,0,8] + theta[0,0,0,9] + theta[0,0,0,10] + theta[0,0,0,11]
   + theta[0,0,0,12] + theta[0,0,0,13] + theta[0,0,0,14] + theta[0,0,0,15]
   + theta[0,0,0,16] + theta[0,0,0,17] + theta[0,0,0,18] + theta[0,0,0,19]
   + theta[0,0,0,20] <= 0
 r_4[0,0,0,7]: theta[0,0,0,1] + theta[0,0,0,2] + theta[0,0,0,3]
   + theta[0,0,0,4] + theta[0,0,0,5] + theta[0,0,0,6] + theta[0,0,0,7]
   + theta[0,0,0,8] + theta[0,0,0,9] + theta[0,0,0,10] + theta[0,0,0,11]
   + theta[0,0,0,12] + theta[0,0,0,13] + theta[0,0,0,14] + theta[0,0,0,15]
   + theta[0,0,0,16] + theta[0,0,0,17] + theta[0,0,0,18] + theta[0,0,0,19]
   + theta[0,0,0,20] <= 0
 r_4[0,0,0,8]: theta[0,0,0,1] + theta[0,0,0,2] + theta[0,0,0,3]
   + theta[0,0,0,4] + theta[0,0,0,5] + theta[0,0,0,6] + theta[0,0,0,7]
   + theta[0,0,0,8] + theta[0,0,0,9] + theta[0,0,0,10] + theta[0,0,0,11]
   + theta[0,0,0,12] + theta[0,0,0,13] + theta[0,0,0,14] + theta[0,0,0,15]
   + theta[0,0,0,16] + theta[0,0,0,17] + theta[0,0,0,18] + theta[0,0,0,19]
   + theta[0,0,0,20] <= 0
 r_4[0,0,0,9]: theta[0,0,0,1] + theta[0,0,0,2] + theta[0,0,0,3]
   + theta[0,0,0,4] + theta[0,0,0,5] + theta[0,0,0,6] + theta[0,0,0,7]
   + theta[0,0,0,8] + theta[0,0,0,9] + theta[0,0,0,10] + theta[0,0,0,11]
   + theta[0,0,0,12] + theta[0,0,0,13] + theta[0,0,0,14] + theta[0,0,0,15]
   + theta[0,0,0,16] + theta[0,0,0,17] + theta[0,0,0,18] + theta[0,0,0,19]
   + theta[0,0,0,20] <= 0
 r_4[0,0,0,10]: theta[0,0,0,1] + theta[0,0,0,2] + theta[0,0,0,3]
   + theta[0,0,0,4] + theta[0,0,0,5] + theta[0,0,0,6] + theta[0,0,0,7]
   + theta[0,0,0,8] + theta[0,0,0,9] + theta[0,0,0,10] + theta[0,0,0,11]
   + theta[0,0,0,12] + theta[0,0,0,13] + theta[0,0,0,14] + theta[0,0,0,15]
   + theta[0,0,0,16] + theta[0,0,0,17] + theta[0,0,0,18] + theta[0,0,0,19]
   + theta[0,0,0,20] <= 0
 r_4[0,0,0,11]: theta[0,0,0,1] + theta[0,0,0,2] + theta[0,0,0,3]
   + theta[0,0,0,4] + theta[0,0,0,5] + theta[0,0,0,6] + theta[0,0,0,7]
   + theta[0,0,0,8] + theta[0,0,0,9] + theta[0,0,0,10] + theta[0,0,0,11]
   + theta[0,0,0,12] + theta[0,0,0,13] + theta[0,0,0,14] + theta[0,0,0,15]
   + theta[0,0,0,16] + theta[0,0,0,17] + theta[0,0,0,18] + theta[0,0,0,19]
   + theta[0,0,0,20] <= 0
 r_4[0,0,0,12]: theta[0,0,0,1] + theta[0,0,0,2] + theta[0,0,0,3]
   + theta[0,0,0,4] + theta[0,0,0,5] + theta[0,0,0,6] + theta[0,0,0,7]
   + theta[0,0,0,8] + theta[0,0,0,9] + theta[0,0,0,10] + theta[0,0,0,11]
   + theta[0,0,0,12] + theta[0,0,0,13] + theta[0,0,0,14] + theta[0,0,0,15]
   + theta[0,0,0,16] + theta[0,0,0,17] + theta[0,0,0,18] + theta[0,0,0,19]
   + theta[0,0,0,20] <= 0
 r_4[0,0,0,13]: theta[0,0,0,1] + theta[0,0,0,2] + theta[0,0,0,3]
   + theta[0,0,0,4] + theta[0,0,0,5] + theta[0,0,0,6] + theta[0,0,0,7]
   + theta[0,0,0,8] + theta[0,0,0,9] + theta[0,0,0,10] + theta[0,0,0,11]
   + theta[0,0,0,12] + theta[0,0,0,13] + theta[0,0,0,14] + theta[0,0,0,15]
   + theta[0,0,0,16] + theta[0,0,0,17] + theta[0,0,0,18] + theta[0,0,0,19]
   + theta[0,0,0,20] <= 0
 r_4[0,0,0,14]: theta[0,0,0,1] + theta[0,0,0,2] + theta[0,0,0,3]
   + theta[0,0,0,4] + theta[0,0,0,5] + theta[0,0,0,6] + theta[0,0,0,7]
   + theta[0,0,0,8] + theta[0,0,0,9] + theta[0,0,0,10] + theta[0,0,0,11]
   + theta[0,0,0,12] + theta[0,0,0,13] + theta[0,0,0,14] + theta[0,0,0,15]
   + theta[0,0,0,16] + theta[0,0,0,17] + theta[0,0,0,18] + theta[0,0,0,19]
   + theta[0,0,0,20] <= 0
 r_4[0,0,0,15]: theta[0,0,0,1] + theta[0,0,0,2] + theta[0,0,0,3]
   + theta[0,0,0,4] + theta[0,0,0,5] + theta[0,0,0,6] + theta[0,0,0,7]
   + theta[0,0,0,8] + theta[0,0,0,9] + theta[0,0,0,10] + theta[0,0,0,11]
   + theta[0,0,0,12] + theta[0,0,0,13] + theta[0,0,0,14] + theta[0,0,0,15]
   + theta[0,0,0,16] + theta[0,0,0,17] + theta[0,0,0,18] + theta[0,0,0,19]
   + theta[0,0,0,20] <= 0
 r_4[0,0,0,16]: theta[0,0,0,1] + theta[0,0,0,2] + theta[0,0,0,3]
   + theta[0,0,0,4] + theta[0,0,0,5] + theta[0,0,0,6] + theta[0,0,0,7]
   + theta[0,0,0,8] + theta[0,0,0,9] + theta[0,0,0,10] + theta[0,0,0,11]
   + theta[0,0,0,12] + theta[0,0,0,13] + theta[0,0,0,14] + theta[0,0,0,15]
   + theta[0,0,0,16] + theta[0,0,0,17] + theta[0,0,0,18] + theta[0,0,0,19]
   + theta[0,0,0,20] <= 0
 r_4[0,0,0,17]: theta[0,0,0,1] + theta[0,0,0,2] + theta[0,0,0,3]
   + theta[0,0,0,4] + theta[0,0,0,5] + theta[0,0,0,6] + theta[0,0,0,7]
   + theta[0,0,0,8] + theta[0,0,0,9] + theta[0,0,0,10] + theta[0,0,0,11]
   + theta[0,0,0,12] + theta[0,0,0,13] + theta[0,0,0,14] + theta[0,0,0,15]
   + theta[0,0,0,16] + theta[0,0,0,17] + theta[0,0,0,18] + theta[0,0,0,19]
   + theta[0,0,0,20] <= 0
 r_4[0,0,0,18]: theta[0,0,0,1] + theta[0,0,0,2] + theta[0,0,0,3]
   + theta[0,0,0,4] + theta[0,0,0,5] + theta[0,0,0,6] + theta[0,0,0,7]
   + theta[0,0,0,8] + theta[0,0,0,9] + theta[0,0,0,10] + theta[0,0,0,11]
   + theta[0,0,0,12] + theta[0,0,0,13] + theta[0,0,0,14] + theta[0,0,0,15]
   + theta[0,0,0,16] + theta[0,0,0,17] + theta[0,0,0,18] + theta[0,0,0,19]
   + theta[0,0,0,20] <= 0
 r_4[0,0,0,19]: theta[0,0,0,1] + theta[0,0,0,2] + theta[0,0,0,3]
   + theta[0,0,0,4] + theta[0,0,0,5] + theta[0,0,0,6] + theta[0,0,0,7]
   + theta[0,0,0,8] + theta[0,0,0,9] + theta[0,0,0,10] + theta[0,0,0,11]
   + theta[0,0,0,12] + theta[0,0,0,13] + theta[0,0,0,14] + theta[0,0,0,15]
   + theta[0,0,0,16] + theta[0,0,0,17] + theta[0,0,0,18] + theta[0,0,0,19]
   + theta[0,0,0,20] <= 0
 r_4[0,0,0,20]: theta[0,0,0,1] + theta[0,0,0,2] + theta[0,0,0,3]
   + theta[0,0,0,4] + theta[0,0,0,5] + theta[0,0,0,6] + theta[0,0,0,7]
   + theta[0,0,0,8] + theta[0,0,0,9] + theta[0,0,0,10] + theta[0,0,0,11]
   + theta[0,0,0,12] + theta[0,0,0,13] + theta[0,0,0,14] + theta[0,0,0,15]
   + theta[0,0,0,16] + theta[0,0,0,17] + theta[0,0,0,18] + theta[0,0,0,19]
   + theta[0,0,0,20] <= 0
 r_4[1,0,0,1]: theta[1,0,0,1] + theta[1,0,0,2] + theta[1,0,0,3]
   + theta[1,0,0,4] + theta[1,0,0,5] + theta[1,0,0,6] + theta[1,0,0,7]
   + theta[1,0,0,8] + theta[1,0,0,9] + theta[1,0,0,10] + theta[1,0,0,11]
   + theta[1,0,0,12] + theta[1,0,0,13] + theta[1,0,0,14] + theta[1,0,0,15]
   + theta[1,0,0,16] + theta[1,0,0,17] + theta[1,0,0,18] + theta[1,0,0,19]
   + theta[1,0,0,20] <= 0
 r_4[1,0,0,2]: theta[1,0,0,1] + theta[1,0,0,2] + theta[1,0,0,3]
   + theta[1,0,0,4] + theta[1,0,0,5] + theta[1,0,0,6] + theta[1,0,0,7]
   + theta[1,0,0,8] + theta[1,0,0,9] + theta[1,0,0,10] + theta[1,0,0,11]
   + theta[1,0,0,12] + theta[1,0,0,13] + theta[1,0,0,14] + theta[1,0,0,15]
   + theta[1,0,0,16] + theta[1,0,0,17] + theta[1,0,0,18] + theta[1,0,0,19]
   + theta[1,0,0,20] <= 0
 r_4[1,0,0,3]: theta[1,0,0,1] + theta[1,0,0,2] + theta[1,0,0,3]
   + theta[1,0,0,4] + theta[1,0,0,5] + theta[1,0,0,6] + theta[1,0,0,7]
   + theta[1,0,0,8] + theta[1,0,0,9] + theta[1,0,0,10] + theta[1,0,0,11]
   + theta[1,0,0,12] + theta[1,0,0,13] + theta[1,0,0,14] + theta[1,0,0,15]
   + theta[1,0,0,16] + theta[1,0,0,17] + theta[1,0,0,18] + theta[1,0,0,19]
   + theta[1,0,0,20] <= 0
 r_4[1,0,0,4]: theta[1,0,0,1] + theta[1,0,0,2] + theta[1,0,0,3]
   + theta[1,0,0,4] + theta[1,0,0,5] + theta[1,0,0,6] + theta[1,0,0,7]
   + theta[1,0,0,8] + theta[1,0,0,9] + theta[1,0,0,10] + theta[1,0,0,11]
   + theta[1,0,0,12] + theta[1,0,0,13] + theta[1,0,0,14] + theta[1,0,0,15]
   + theta[1,0,0,16] + theta[1,0,0,17] + theta[1,0,0,18] + theta[1,0,0,19]
   + theta[1,0,0,20] <= 0
 r_4[1,0,0,5]: theta[1,0,0,1] + theta[1,0,0,2] + theta[1,0,0,3]
   + theta[1,0,0,4] + theta[1,0,0,5] + theta[1,0,0,6] + theta[1,0,0,7]
   + theta[1,0,0,8] + theta[1,0,0,9] + theta[1,0,0,10] + theta[1,0,0,11]
   + theta[1,0,0,12] + theta[1,0,0,13] + theta[1,0,0,14] + theta[1,0,0,15]
   + theta[1,0,0,16] + theta[1,0,0,17] + theta[1,0,0,18] + theta[1,0,0,19]
   + theta[1,0,0,20] <= 0
 r_4[1,0,0,6]: theta[1,0,0,1] + theta[1,0,0,2] + theta[1,0,0,3]
   + theta[1,0,0,4] + theta[1,0,0,5] + theta[1,0,0,6] + theta[1,0,0,7]
   + theta[1,0,0,8] + theta[1,0,0,9] + theta[1,0,0,10] + theta[1,0,0,11]
   + theta[1,0,0,12] + theta[1,0,0,13] + theta[1,0,0,14] + theta[1,0,0,15]
   + theta[1,0,0,16] + theta[1,0,0,17] + theta[1,0,0,18] + theta[1,0,0,19]
   + theta[1,0,0,20] <= 0
 r_4[1,0,0,7]: theta[1,0,0,1] + theta[1,0,0,2] + theta[1,0,0,3]
   + theta[1,0,0,4] + theta[1,0,0,5] + theta[1,0,0,6] + theta[1,0,0,7]
   + theta[1,0,0,8] + theta[1,0,0,9] + theta[1,0,0,10] + theta[1,0,0,11]
   + theta[1,0,0,12] + theta[1,0,0,13] + theta[1,0,0,14] + theta[1,0,0,15]
   + theta[1,0,0,16] + theta[1,0,0,17] + theta[1,0,0,18] + theta[1,0,0,19]
   + theta[1,0,0,20] <= 0
 r_4[1,0,0,8]: theta[1,0,0,1] + theta[1,0,0,2] + theta[1,0,0,3]
   + theta[1,0,0,4] + theta[1,0,0,5] + theta[1,0,0,6] + theta[1,0,0,7]
   + theta[1,0,0,8] + theta[1,0,0,9] + theta[1,0,0,10] + theta[1,0,0,11]
   + theta[1,0,0,12] + theta[1,0,0,13] + theta[1,0,0,14] + theta[1,0,0,15]
   + theta[1,0,0,16] + theta[1,0,0,17] + theta[1,0,0,18] + theta[1,0,0,19]
   + theta[1,0,0,20] <= 0
 r_4[1,0,0,9]: theta[1,0,0,1] + theta[1,0,0,2] + theta[1,0,0,3]
   + theta[1,0,0,4] + theta[1,0,0,5] + theta[1,0,0,6] + theta[1,0,0,7]
   + theta[1,0,0,8] + theta[1,0,0,9] + theta[1,0,0,10] + theta[1,0,0,11]
   + theta[1,0,0,12] + theta[1,0,0,13] + theta[1,0,0,14] + theta[1,0,0,15]
   + theta[1,0,0,16] + theta[1,0,0,17] + theta[1,0,0,18] + theta[1,0,0,19]
   + theta[1,0,0,20] <= 0
 r_4[1,0,0,10]: theta[1,0,0,1] + theta[1,0,0,2] + theta[1,0,0,3]
   + theta[1,0,0,4] + theta[1,0,0,5] + theta[1,0,0,6] + theta[1,0,0,7]
   + theta[1,0,0,8] + theta[1,0,0,9] + theta[1,0,0,10] + theta[1,0,0,11]
   + theta[1,0,0,12] + theta[1,0,0,13] + theta[1,0,0,14] + theta[1,0,0,15]
   + theta[1,0,0,16] + theta[1,0,0,17] + theta[1,0,0,18] + theta[1,0,0,19]
   + theta[1,0,0,20] <= 0
 r_4[1,0,0,11]: theta[1,0,0,1] + theta[1,0,0,2] + theta[1,0,0,3]
   + theta[1,0,0,4] + theta[1,0,0,5] + theta[1,0,0,6] + theta[1,0,0,7]
   + theta[1,0,0,8] + theta[1,0,0,9] + theta[1,0,0,10] + theta[1,0,0,11]
   + theta[1,0,0,12] + theta[1,0,0,13] + theta[1,0,0,14] + theta[1,0,0,15]
   + theta[1,0,0,16] + theta[1,0,0,17] + theta[1,0,0,18] + theta[1,0,0,19]
   + theta[1,0,0,20] <= 0
 r_4[1,0,0,12]: theta[1,0,0,1] + theta[1,0,0,2] + theta[1,0,0,3]
   + theta[1,0,0,4] + theta[1,0,0,5] + theta[1,0,0,6] + theta[1,0,0,7]
   + theta[1,0,0,8] + theta[1,0,0,9] + theta[1,0,0,10] + theta[1,0,0,11]
   + theta[1,0,0,12] + theta[1,0,0,13] + theta[1,0,0,14] + theta[1,0,0,15]
   + theta[1,0,0,16] + theta[1,0,0,17] + theta[1,0,0,18] + theta[1,0,0,19]
   + theta[1,0,0,20] <= 0
 r_4[1,0,0,13]: theta[1,0,0,1] + theta[1,0,0,2] + theta[1,0,0,3]
   + theta[1,0,0,4] + theta[1,0,0,5] + theta[1,0,0,6] + theta[1,0,0,7]
   + theta[1,0,0,8] + theta[1,0,0,9] + theta[1,0,0,10] + theta[1,0,0,11]
   + theta[1,0,0,12] + theta[1,0,0,13] + theta[1,0,0,14] + theta[1,0,0,15]
   + theta[1,0,0,16] + theta[1,0,0,17] + theta[1,0,0,18] + theta[1,0,0,19]
   + theta[1,0,0,20] <= 0
 r_4[1,0,0,14]: theta[1,0,0,1] + theta[1,0,0,2] + theta[1,0,0,3]
   + theta[1,0,0,4] + theta[1,0,0,5] + theta[1,0,0,6] + theta[1,0,0,7]
   + theta[1,0,0,8] + theta[1,0,0,9] + theta[1,0,0,10] + theta[1,0,0,11]
   + theta[1,0,0,12] + theta[1,0,0,13] + theta[1,0,0,14] + theta[1,0,0,15]
   + theta[1,0,0,16] + theta[1,0,0,17] + theta[1,0,0,18] + theta[1,0,0,19]
   + theta[1,0,0,20] <= 0
 r_4[1,0,0,15]: theta[1,0,0,1] + theta[1,0,0,2] + theta[1,0,0,3]
   + theta[1,0,0,4] + theta[1,0,0,5] + theta[1,0,0,6] + theta[1,0,0,7]
   + theta[1,0,0,8] + theta[1,0,0,9] + theta[1,0,0,10] + theta[1,0,0,11]
   + theta[1,0,0,12] + theta[1,0,0,13] + theta[1,0,0,14] + theta[1,0,0,15]
   + theta[1,0,0,16] + theta[1,0,0,17] + theta[1,0,0,18] + theta[1,0,0,19]
   + theta[1,0,0,20] <= 0
 r_4[1,0,0,16]: theta[1,0,0,1] + theta[1,0,0,2] + theta[1,0,0,3]
   + theta[1,0,0,4] + theta[1,0,0,5] + theta[1,0,0,6] + theta[1,0,0,7]
   + theta[1,0,0,8] + theta[1,0,0,9] + theta[1,0,0,10] + theta[1,0,0,11]
   + theta[1,0,0,12] + theta[1,0,0,13] + theta[1,0,0,14] + theta[1,0,0,15]
   + theta[1,0,0,16] + theta[1,0,0,17] + theta[1,0,0,18] + theta[1,0,0,19]
   + theta[1,0,0,20] <= 0
 r_4[1,0,0,17]: theta[1,0,0,1] + theta[1,0,0,2] + theta[1,0,0,3]
   + theta[1,0,0,4] + theta[1,0,0,5] + theta[1,0,0,6] + theta[1,0,0,7]
   + theta[1,0,0,8] + theta[1,0,0,9] + theta[1,0,0,10] + theta[1,0,0,11]
   + theta[1,0,0,12] + theta[1,0,0,13] + theta[1,0,0,14] + theta[1,0,0,15]
   + theta[1,0,0,16] + theta[1,0,0,17] + theta[1,0,0,18] + theta[1,0,0,19]
   + theta[1,0,0,20] <= 0
 r_4[1,0,0,18]: theta[1,0,0,1] + theta[1,0,0,2] + theta[1,0,0,3]
   + theta[1,0,0,4] + theta[1,0,0,5] + theta[1,0,0,6] + theta[1,0,0,7]
   + theta[1,0,0,8] + theta[1,0,0,9] + theta[1,0,0,10] + theta[1,0,0,11]
   + theta[1,0,0,12] + theta[1,0,0,13] + theta[1,0,0,14] + theta[1,0,0,15]
   + theta[1,0,0,16] + theta[1,0,0,17] + theta[1,0,0,18] + theta[1,0,0,19]
   + theta[1,0,0,20] <= 0
 r_4[1,0,0,19]: theta[1,0,0,1] + theta[1,0,0,2] + theta[1,0,0,3]
   + theta[1,0,0,4] + theta[1,0,0,5] + theta[1,0,0,6] + theta[1,0,0,7]
   + theta[1,0,0,8] + theta[1,0,0,9] + theta[1,0,0,10] + theta[1,0,0,11]
   + theta[1,0,0,12] + theta[1,0,0,13] + theta[1,0,0,14] + theta[1,0,0,15]
   + theta[1,0,0,16] + theta[1,0,0,17] + theta[1,0,0,18] + theta[1,0,0,19]
   + theta[1,0,0,20] <= 0
 r_4[1,0,0,20]: theta[1,0,0,1] + theta[1,0,0,2] + theta[1,0,0,3]
   + theta[1,0,0,4] + theta[1,0,0,5] + theta[1,0,0,6] + theta[1,0,0,7]
   + theta[1,0,0,8] + theta[1,0,0,9] + theta[1,0,0,10] + theta[1,0,0,11]
   + theta[1,0,0,12] + theta[1,0,0,13] + theta[1,0,0,14] + theta[1,0,0,15]
   + theta[1,0,0,16] + theta[1,0,0,17] + theta[1,0,0,18] + theta[1,0,0,19]
   + theta[1,0,0,20] <= 0
 r_5[0,0]: w[0,0,1] = 1
 r_5[1,0]: w[1,0,1] = 1
 r_6[0,1]: w[0,0,1] = 1
 r_6[0,2]: w[0,0,2] = 1
 r_6[0,3]: w[0,0,3] = 1
 r_6[0,4]: w[0,0,4] = 1
 r_6[0,5]: w[0,0,5] = 1
 r_6[0,6]: w[0,0,6] = 1
 r_6[0,7]: w[0,0,7] = 1
 r_6[0,8]: w[0,0,8] = 1
 r_6[0,9]: w[0,0,9] = 1
 r_6[0,10]: w[0,0,10] = 1
 r_6[0,11]: w[0,0,11] = 1
 r_6[0,12]: w[0,0,12] = 1
 r_6[0,13]: w[0,0,13] = 1
 r_6[0,14]: w[0,0,14] = 1
 r_6[0,15]: w[0,0,15] = 1
 r_6[0,16]: w[0,0,16] = 1
 r_6[0,17]: w[0,0,17] = 1
 r_6[0,18]: w[0,0,18] = 1
 r_6[0,19]: w[0,0,19] = 1
 r_6[0,20]: w[0,0,20] = 1
 r_6[1,1]: w[1,0,1] = 1
 r_6[1,2]: w[1,0,2] = 1
 r_6[1,3]: w[1,0,3] = 1
 r_6[1,4]: w[1,0,4] = 1
 r_6[1,5]: w[1,0,5] = 1
 r_6[1,6]: w[1,0,6] = 1
 r_6[1,7]: w[1,0,7] = 1
 r_6[1,8]: w[1,0,8] = 1
 r_6[1,9]: w[1,0,9] = 1
 r_6[1,10]: w[1,0,10] = 1
 r_6[1,11]: w[1,0,11] = 1
 r_6[1,12]: w[1,0,12] = 1
 r_6[1,13]: w[1,0,13] = 1
 r_6[1,14]: w[1,0,14] = 1
 r_6[1,15]: w[1,0,15] = 1
 r_6[1,16]: w[1,0,16] = 1
 r_6[1,17]: w[1,0,17] = 1
 r_6[1,18]: w[1,0,18] = 1
 r_6[1,19]: w[1,0,19] = 1
 r_6[1,20]: w[1,0,20] = 1
 r_7[0,0,2]: - w[0,0,1] + w[0,0,2] = 0
 r_7[0,0,3]: - w[0,0,2] + w[0,0,3] = 0
 r_7[0,0,4]: - w[0,0,3] + w[0,0,4] = 0
 r_7[0,0,5]: - w[0,0,4] + w[0,0,5] = 0
 r_7[0,0,6]: - w[0,0,5] + w[0,0,6] = 0
 r_7[0,0,7]: - w[0,0,6] + w[0,0,7] = 0
 r_7[0,0,8]: - w[0,0,7] + w[0,0,8] = 0
 r_7[0,0,9]: - w[0,0,8] + w[0,0,9] = 0
 r_7[0,0,10]: - w[0,0,9] + w[0,0,10] = 0
 r_7[0,0,11]: - w[0,0,10] + w[0,0,11] = 0
 r_7[0,0,12]: - w[0,0,11] + w[0,0,12] = 0
 r_7[0,0,13]: - w[0,0,12] + w[0,0,13] = 0
 r_7[0,0,14]: - w[0,0,13] + w[0,0,14] = 0
 r_7[0,0,15]: - w[0,0,14] + w[0,0,15] = 0
 r_7[0,0,16]: - w[0,0,15] + w[0,0,16] = 0
 r_7[0,0,17]: - w[0,0,16] + w[0,0,17] = 0
 r_7[0,0,18]: - w[0,0,17] + w[0,0,18] = 0
 r_7[0,0,19]: - w[0,0,18] + w[0,0,19] = 0
 r_7[1,0,2]: - w[1,0,1] + w[1,0,2] = 0
 r_7[1,0,3]: - w[1,0,2] + w[1,0,3] = 0
 r_7[1,0,4]: - w[1,0,3] + w[1,0,4] = 0
 r_7[1,0,5]: - w[1,0,4] + w[1,0,5] = 0
 r_7[1,0,6]: - w[1,0,5] + w[1,0,6] = 0
 r_7[1,0,7]: - w[1,0,6] + w[1,0,7] = 0
 r_7[1,0,8]: - w[1,0,7] + w[1,0,8] = 0
 r_7[1,0,9]: - w[1,0,8] + w[1,0,9] = 0
 r_7[1,0,10]: - w[1,0,9] + w[1,0,10] = 0
 r_7[1,0,11]: - w[1,0,10] + w[1,0,11] = 0
 r_7[1,0,12]: - w[1,0,11] + w[1,0,12] = 0
 r_7[1,0,13]: - w[1,0,12] + w[1,0,13] = 0
 r_7[1,0,14]: - w[1,0,13] + w[1,0,14] = 0
 r_7[1,0,15]: - w[1,0,14] + w[1,0,15] = 0
 r_7[1,0,16]: - w[1,0,15] + w[1,0,16] = 0
 r_7[1,0,17]: - w[1,0,16] + w[1,0,17] = 0
 r_7[1,0,18]: - w[1,0,17] + w[1,0,18] = 0
 r_7[1,0,19]: - w[1,0,18] + w[1,0,19] = 0
 r_8[0,0,1]: w[0,0,1] >= 0
 r_8[0,0,2]: w[0,0,2] >= 0
 r_8[0,0,3]: w[0,0,3] >= 0
 r_8[0,0,4]: w[0,0,4] >= 0
 r_8[0,0,5]: w[0,0,5] >= 0
 r_8[0,0,6]: w[0,0,6] >= 0
 r_8[0,0,7]: w[0,0,7] >= 0
 r_8[0,0,8]: w[0,0,8] >= 0
 r_8[0,0,9]: w[0,0,9] >= 0
 r_8[0,0,10]: w[0,0,10] >= 0
 r_8[0,0,11]: w[0,0,11] >= 0
 r_8[0,0,12]: w[0,0,12] >= 0
 r_8[0,0,13]: w[0,0,13] >= 0
 r_8[0,0,14]: w[0,0,14] >= 0
 r_8[0,0,15]: w[0,0,15] >= 0
 r_8[0,0,16]: w[0,0,16] >= 0
 r_8[0,0,17]: w[0,0,17] >= 0
 r_8[0,0,18]: w[0,0,18] >= 0
 r_8[0,0,19]: w[0,0,19] >= 0
 r_8[0,0,20]: w[0,0,20] >= 0
 r_8[1,0,1]: w[1,0,1] >= 0
 r_8[1,0,2]: w[1,0,2] >= 0
 r_8[1,0,3]: w[1,0,3] >= 0
 r_8[1,0,4]: w[1,0,4] >= 0
 r_8[1,0,5]: w[1,0,5] >= 0
 r_8[1,0,6]: w[1,0,6] >= 0
 r_8[1,0,7]: w[1,0,7] >= 0
 r_8[1,0,8]: w[1,0,8] >= 0
 r_8[1,0,9]: w[1,0,9] >= 0
 r_8[1,0,10]: w[1,0,10] >= 0
 r_8[1,0,11]: w[1,0,11] >= 0
 r_8[1,0,12]: w[1,0,12] >= 0
 r_8[1,0,13]: w[1,0,13] >= 0
 r_8[1,0,14]: w[1,0,14] >= 0
 r_8[1,0,15]: w[1,0,15] >= 0
 r_8[1,0,16]: w[1,0,16] >= 0
 r_8[1,0,17]: w[1,0,17] >= 0
 r_8[1,0,18]: w[1,0,18] >= 0
 r_8[1,0,19]: w[1,0,19] >= 0
 r_8[1,0,20]: w[1,0,20] >= 0
 r_9: X[0,20] + X[1,20] >= 0
 r_10[0,1,0]: alpha[0,0,1] + alpha[1,0,1] <= -1
 r_10[0,2,0]: alpha[0,0,2] + alpha[1,0,2] <= -1
 r_10[0,3,0]: alpha[0,0,3] + alpha[1,0,3] <= -1
 r_10[0,4,0]: alpha[0,0,4] + alpha[1,0,4] <= -1
 r_10[0,5,0]: alpha[0,0,5] + alpha[1,0,5] <= -1
 r_10[0,6,0]: alpha[0,0,6] + alpha[1,0,6] <= -1
 r_10[0,7,0]: alpha[0,0,7] + alpha[1,0,7] <= -1
 r_10[0,8,0]: alpha[0,0,8] + alpha[1,0,8] <= -1
 r_10[0,9,0]: alpha[0,0,9] + alpha[1,0,9] <= -1
 r_10[0,10,0]: alpha[0,0,10] + alpha[1,0,10] <= -1
 r_10[0,11,0]: alpha[0,0,11] + alpha[1,0,11] <= -1
 r_10[0,12,0]: alpha[0,0,12] + alpha[1,0,12] <= -1
 r_10[0,13,0]: alpha[0,0,13] + alpha[1,0,13] <= -1
 r_10[0,14,0]: alpha[0,0,14] + alpha[1,0,14] <= -1
 r_10[0,15,0]: alpha[0,0,15] + alpha[1,0,15] <= -1
 r_10[0,16,0]: alpha[0,0,16] + alpha[1,0,16] <= -1
 r_10[0,17,0]: alpha[0,0,17] + alpha[1,0,17] <= -1
 r_10[0,18,0]: alpha[0,0,18] + alpha[1,0,18] <= -1
 r_10[0,19,0]: alpha[0,0,19] + alpha[1,0,19] <= -1
 r_10[0,20,0]: alpha[0,0,20] + alpha[1,0,20] <= -1
 r_10[1,1,0]: alpha[0,1,1] + alpha[1,1,1] <= 0
 r_10[1,2,0]: alpha[0,1,2] + alpha[1,1,2] <= 0
 r_10[1,3,0]: alpha[0,1,3] + alpha[1,1,3] <= 0
 r_10[1,4,0]: alpha[0,1,4] + alpha[1,1,4] <= 0
 r_10[1,5,0]: alpha[0,1,5] + alpha[1,1,5] <= 0
 r_10[1,6,0]: alpha[0,1,6] + alpha[1,1,6] <= 0
 r_10[1,7,0]: alpha[0,1,7] + alpha[1,1,7] <= 0
 r_10[1,8,0]: alpha[0,1,8] + alpha[1,1,8] <= 0
 r_10[1,9,0]: alpha[0,1,9] + alpha[1,1,9] <= 0
 r_10[1,10,0]: alpha[0,1,10] + alpha[1,1,10] <= 0
 r_10[1,11,0]: alpha[0,1,11] + alpha[1,1,11] <= 0
 r_10[1,12,0]: alpha[0,1,12] + alpha[1,1,12] <= 0
 r_10[1,13,0]: alpha[0,1,13] + alpha[1,1,13] <= 0
 r_10[1,14,0]: alpha[0,1,14] + alpha[1,1,14] <= 0
 r_10[1,15,0]: alpha[0,1,15] + alpha[1,1,15] <= 0
 r_10[1,16,0]: alpha[0,1,16] + alpha[1,1,16] <= 0
 r_10[1,17,0]: alpha[0,1,17] + alpha[1,1,17] <= 0
 r_10[1,18,0]: alpha[0,1,18] + alpha[1,1,18] <= 0
 r_10[1,19,0]: alpha[0,1,19] + alpha[1,1,19] <= 0
 r_10[1,20,0]: alpha[0,1,20] + alpha[1,1,20] <= 0
 r_11[0,0,1]: w[0,0,1] + w[1,0,1] <= 860
 r_11[0,0,2]: w[0,0,2] + w[1,0,2] <= 860
 r_11[0,0,3]: w[0,0,3] + w[1,0,3] <= 860
 r_11[0,0,4]: w[0,0,4] + w[1,0,4] <= 860
 r_11[0,0,5]: w[0,0,5] + w[1,0,5] <= 860
 r_11[0,0,6]: w[0,0,6] + w[1,0,6] <= 860
 r_11[0,0,7]: w[0,0,7] + w[1,0,7] <= 860
 r_11[0,0,8]: w[0,0,8] + w[1,0,8] <= 860
 r_11[0,0,9]: w[0,0,9] + w[1,0,9] <= 860
 r_11[0,0,10]: w[0,0,10] + w[1,0,10] <= 860
 r_11[0,0,11]: w[0,0,11] + w[1,0,11] <= 860
 r_11[0,0,12]: w[0,0,12] + w[1,0,12] <= 860
 r_11[0,0,13]: w[0,0,13] + w[1,0,13] <= 860
 r_11[0,0,14]: w[0,0,14] + w[1,0,14] <= 860
 r_11[0,0,15]: w[0,0,15] + w[1,0,15] <= 860
 r_11[0,0,16]: w[0,0,16] + w[1,0,16] <= 860
 r_11[0,0,17]: w[0,0,17] + w[1,0,17] <= 860
 r_11[0,0,18]: w[0,0,18] + w[1,0,18] <= 860
 r_11[0,0,19]: w[0,0,19] + w[1,0,19] <= 860
 r_11[0,0,20]: w[0,0,20] + w[1,0,20] <= 860
 r_11[0,1,1]: w[0,0,1] + w[1,0,1] <= 860
 r_11[0,1,2]: w[0,0,2] + w[1,0,2] <= 860
 r_11[0,1,3]: w[0,0,3] + w[1,0,3] <= 860
 r_11[0,1,4]: w[0,0,4] + w[1,0,4] <= 860
 r_11[0,1,5]: w[0,0,5] + w[1,0,5] <= 860
 r_11[0,1,6]: w[0,0,6] + w[1,0,6] <= 860
 r_11[0,1,7]: w[0,0,7] + w[1,0,7] <= 860
 r_11[0,1,8]: w[0,0,8] + w[1,0,8] <= 860
 r_11[0,1,9]: w[0,0,9] + w[1,0,9] <= 860
 r_11[0,1,10]: w[0,0,10] + w[1,0,10] <= 860
 r_11[0,1,11]: w[0,0,11] + w[1,0,11] <= 860
 r_11[0,1,12]: w[0,0,12] + w[1,0,12] <= 860
 r_11[0,1,13]: w[0,0,13] + w[1,0,13] <= 860
 r_11[0,1,14]: w[0,0,14] + w[1,0,14] <= 860
 r_11[0,1,15]: w[0,0,15] + w[1,0,15] <= 860
 r_11[0,1,16]: w[0,0,16] + w[1,0,16] <= 860
 r_11[0,1,17]: w[0,0,17] + w[1,0,17] <= 860
 r_11[0,1,18]: w[0,0,18] + w[1,0,18] <= 860
 r_11[0,1,19]: w[0,0,19] + w[1,0,19] <= 860
 r_11[0,1,20]: w[0,0,20] + w[1,0,20] <= 860
 r_12[0,2]: - X[0,1] + X[0,2] = 0
 r_12[0,3]: - alpha[0,0,2] - alpha[1,0,2] - X[0,2] + X[0,3] = 0
 r_12[0,4]: - alpha[0,0,3] - alpha[1,0,3] - X[0,3] + X[0,4] = 0
 r_12[0,5]: - alpha[0,0,4] - alpha[1,0,4] - X[0,4] + X[0,5] = 0
 r_12[0,6]: - alpha[0,0,5] - alpha[1,0,5] - X[0,5] + X[0,6] = 0
 r_12[0,7]: - alpha[0,0,6] - alpha[1,0,6] - X[0,6] + X[0,7] = 0
 r_12[0,8]: - alpha[0,0,7] - alpha[1,0,7] - X[0,7] + X[0,8] = 0
 r_12[0,9]: - alpha[0,0,8] - alpha[1,0,8] - X[0,8] + X[0,9] = 0
 r_12[0,10]: - alpha[0,0,9] - alpha[1,0,9] - X[0,9] + X[0,10] = 0
 r_12[0,11]: - alpha[0,0,10] - alpha[1,0,10] - X[0,10] + X[0,11] = 0
 r_12[0,12]: - alpha[0,0,11] - alpha[1,0,11] - X[0,11] + X[0,12] = 0
 r_12[0,13]: - alpha[0,0,12] - alpha[1,0,12] - X[0,12] + X[0,13] = 0
 r_12[0,14]: - alpha[0,0,13] - alpha[1,0,13] - X[0,13] + X[0,14] = 0
 r_12[0,15]: - alpha[0,0,14] - alpha[1,0,14] - X[0,14] + X[0,15] = 0
 r_12[0,16]: - alpha[0,0,15] - alpha[1,0,15] - X[0,15] + X[0,16] = 0
 r_12[0,17]: - alpha[0,0,16] - alpha[1,0,16] - X[0,16] + X[0,17] = 0
 r_12[0,18]: - alpha[0,0,17] - alpha[1,0,17] - X[0,17] + X[0,18] = 0
 r_12[0,19]: - alpha[0,0,18] - alpha[1,0,18] - X[0,18] + X[0,19] = 0
 r_12[0,20]: - alpha[0,0,19] - alpha[1,0,19] - X[0,19] + X[0,20] = 0
 r_12[1,2]: - alpha[0,1,2] - X[1,1] + X[1,2] = 0
 r_12[1,3]: - alpha[0,1,3] - alpha[1,1,2] - X[1,2] + X[1,3] = 0
 r_12[1,4]: - alpha[0,1,4] - alpha[1,1,3] - X[1,3] + X[1,4] = 0
 r_12[1,5]: - alpha[0,1,5] - alpha[1,1,4] - X[1,4] + X[1,5] = 0
 r_12[1,6]: - alpha[0,1,6] - alpha[1,1,5] - X[1,5] + X[1,6] = 0
 r_12[1,7]: - alpha[0,1,7] - alpha[1,1,6] - X[1,6] + X[1,7] = 0
 r_12[1,8]: - alpha[0,1,8] - alpha[1,1,7] - X[1,7] + X[1,8] = 0
 r_12[1,9]: - alpha[0,1,9] - alpha[1,1,8] - X[1,8] + X[1,9] = 0
 r_12[1,10]: - alpha[0,1,10] - alpha[1,1,9] - X[1,9] + X[1,10] = 0
 r_12[1,11]: - alpha[0,1,11] - alpha[1,1,10] - X[1,10] + X[1,11] = 0
 r_12[1,12]: - alpha[0,1,12] - alpha[1,1,11] - X[1,11] + X[1,12] = 0
 r_12[1,13]: - alpha[0,1,13] - alpha[1,1,12] - X[1,12] + X[1,13] = 0
 r_12[1,14]: - alpha[0,1,14] - alpha[1,1,13] - X[1,13] + X[1,14] = 0
 r_12[1,15]: - alpha[0,1,15] - alpha[1,1,14] - X[1,14] + X[1,15] = 0
 r_12[1,16]: - alpha[0,1,16] - alpha[1,1,15] - X[1,15] + X[1,16] = 0
 r_12[1,17]: - alpha[0,1,17] - alpha[1,1,16] - X[1,16] + X[1,17] = 0
 r_12[1,18]: - alpha[0,1,18] - alpha[1,1,17] - X[1,17] + X[1,18] = 0
 r_12[1,19]: - alpha[0,1,19] - alpha[1,1,18] - X[1,18] + X[1,19] = 0
 r_12[1,20]: - alpha[0,1,20] - alpha[1,1,19] - X[1,19] + X[1,20] = 0
 r_13[0]: X[0,1] = 0
 r_13[1]: X[1,1] = 0
 r_14[0,1]: X[0,1] <= 430
 r_14[0,2]: X[0,2] <= 430
 r_14[0,3]: X[0,3] <= 430
 r_14[0,4]: X[0,4] <= 430
 r_14[0,5]: X[0,5] <= 430
 r_14[0,6]: X[0,6] <= 430
 r_14[0,7]: X[0,7] <= 430
 r_14[0,8]: X[0,8] <= 430
 r_14[0,9]: X[0,9] <= 430
 r_14[0,10]: X[0,10] <= 430
 r_14[0,11]: X[0,11] <= 430
 r_14[0,12]: X[0,12] <= 430
 r_14[0,13]: X[0,13] <= 430
 r_14[0,14]: X[0,14] <= 430
 r_14[0,15]: X[0,15] <= 430
 r_14[0,16]: X[0,16] <= 430
 r_14[0,17]: X[0,17] <= 430
 r_14[0,18]: X[0,18] <= 430
 r_14[0,19]: X[0,19] <= 430
 r_14[0,20]: X[0,20] <= 430
 r_14[1,1]: X[1,1] <= 430
 r_14[1,2]: X[1,2] <= 430
 r_14[1,3]: X[1,3] <= 430
 r_14[1,4]: X[1,4] <= 430
 r_14[1,5]: X[1,5] <= 430
 r_14[1,6]: X[1,6] <= 430
 r_14[1,7]: X[1,7] <= 430
 r_14[1,8]: X[1,8] <= 430
 r_14[1,9]: X[1,9] <= 430
 r_14[1,10]: X[1,10] <= 430
 r_14[1,11]: X[1,11] <= 430
 r_14[1,12]: X[1,12] <= 430
 r_14[1,13]: X[1,13] <= 430
 r_14[1,14]: X[1,14] <= 430
 r_14[1,15]: X[1,15] <= 430
 r_14[1,16]: X[1,16] <= 430
 r_14[1,17]: X[1,17] <= 430
 r_14[1,18]: X[1,18] <= 430
 r_14[1,19]: X[1,19] <= 430
 r_14[1,20]: X[1,20] <= 430
Bounds
Binaries
 alpha[0,0,1] alpha[0,0,2] alpha[0,0,3] alpha[0,0,4] alpha[0,0,5]
 alpha[0,0,6] alpha[0,0,7] alpha[0,0,8] alpha[0,0,9] alpha[0,0,10]
 alpha[0,0,11] alpha[0,0,12] alpha[0,0,13] alpha[0,0,14] alpha[0,0,15]
 alpha[0,0,16] alpha[0,0,17] alpha[0,0,18] alpha[0,0,19] alpha[0,0,20]
 alpha[0,1,1] alpha[0,1,2] alpha[0,1,3] alpha[0,1,4] alpha[0,1,5]
 alpha[0,1,6] alpha[0,1,7] alpha[0,1,8] alpha[0,1,9] alpha[0,1,10]
 alpha[0,1,11] alpha[0,1,12] alpha[0,1,13] alpha[0,1,14] alpha[0,1,15]
 alpha[0,1,16] alpha[0,1,17] alpha[0,1,18] alpha[0,1,19] alpha[0,1,20]
 alpha[1,0,1] alpha[1,0,2] alpha[1,0,3] alpha[1,0,4] alpha[1,0,5]
 alpha[1,0,6] alpha[1,0,7] alpha[1,0,8] alpha[1,0,9] alpha[1,0,10]
 alpha[1,0,11] alpha[1,0,12] alpha[1,0,13] alpha[1,0,14] alpha[1,0,15]
 alpha[1,0,16] alpha[1,0,17] alpha[1,0,18] alpha[1,0,19] alpha[1,0,20]
 alpha[1,1,1] alpha[1,1,2] alpha[1,1,3] alpha[1,1,4] alpha[1,1,5]
 alpha[1,1,6] alpha[1,1,7] alpha[1,1,8] alpha[1,1,9] alpha[1,1,10]
 alpha[1,1,11] alpha[1,1,12] alpha[1,1,13] alpha[1,1,14] alpha[1,1,15]
 alpha[1,1,16] alpha[1,1,17] alpha[1,1,18] alpha[1,1,19] alpha[1,1,20]
 w[0,0,1] w[0,0,2] w[0,0,3] w[0,0,4] w[0,0,5] w[0,0,6] w[0,0,7] w[0,0,8]
 w[0,0,9] w[0,0,10] w[0,0,11] w[0,0,12] w[0,0,13] w[0,0,14] w[0,0,15]
 w[0,0,16] w[0,0,17] w[0,0,18] w[0,0,19] w[0,0,20] w[1,0,1] w[1,0,2]
 w[1,0,3] w[1,0,4] w[1,0,5] w[1,0,6] w[1,0,7] w[1,0,8] w[1,0,9] w[1,0,10]
 w[1,0,11] w[1,0,12] w[1,0,13] w[1,0,14] w[1,0,15] w[1,0,16] w[1,0,17]
 w[1,0,18] w[1,0,19] w[1,0,20] theta[0,0,0,1] theta[0,0,0,2] theta[0,0,0,3]
 theta[0,0,0,4] theta[0,0,0,5] theta[0,0,0,6] theta[0,0,0,7] theta[0,0,0,8]
 theta[0,0,0,9] theta[0,0,0,10] theta[0,0,0,11] theta[0,0,0,12]
 theta[0,0,0,13] theta[0,0,0,14] theta[0,0,0,15] theta[0,0,0,16]
 theta[0,0,0,17] theta[0,0,0,18] theta[0,0,0,19] theta[0,0,0,20]
 theta[1,0,0,1] theta[1,0,0,2] theta[1,0,0,3] theta[1,0,0,4] theta[1,0,0,5]
 theta[1,0,0,6] theta[1,0,0,7] theta[1,0,0,8] theta[1,0,0,9]
 theta[1,0,0,10] theta[1,0,0,11] theta[1,0,0,12] theta[1,0,0,13]
 theta[1,0,0,14] theta[1,0,0,15] theta[1,0,0,16] theta[1,0,0,17]
 theta[1,0,0,18] theta[1,0,0,19] theta[1,0,0,20]
Generals
 X[0,1] X[0,2] X[0,3] X[0,4] X[0,5] X[0,6] X[0,7] X[0,8] X[0,9] X[0,10]
 X[0,11] X[0,12] X[0,13] X[0,14] X[0,15] X[0,16] X[0,17] X[0,18] X[0,19]
 X[0,20] X[1,1] X[1,2] X[1,3] X[1,4] X[1,5] X[1,6] X[1,7] X[1,8] X[1,9]
 X[1,10] X[1,11] X[1,12] X[1,13] X[1,14] X[1,15] X[1,16] X[1,17] X[1,18]
 X[1,19] X[1,20]
End
